c Generated map
c Size: 9 * 9, weights in range: 1 to 10, walls: False, with ratio 0.0
c dim 7 of 8
c
p sp 81 144
c graph contains 81 nodes and 144 arcs
c
a 1 10 8
a 10 1 8
a 1 2 5
a 2 1 5
a 2 11 6
a 11 2 6
a 2 3 8
a 3 2 8
a 3 12 9
a 12 3 9
a 3 4 2
a 4 3 2
a 4 13 3
a 13 4 3
a 4 5 8
a 5 4 8
a 5 14 5
a 14 5 5
a 5 6 9
a 6 5 9
a 6 15 4
a 15 6 4
a 6 7 3
a 7 6 3
a 7 16 4
a 16 7 4
a 7 8 10
a 8 7 10
a 8 17 4
a 17 8 4
a 8 9 2
a 9 8 2
a 9 18 8
a 18 9 8
a 10 19 9
a 19 10 9
a 10 11 7
a 11 10 7
a 11 20 5
a 20 11 5
a 11 12 5
a 12 11 5
a 12 21 3
a 21 12 3
a 12 13 10
a 13 12 10
a 13 22 10
a 22 13 10
a 13 14 8
a 14 13 8
a 14 23 9
a 23 14 9
a 14 15 4
a 15 14 4
a 15 24 10
a 24 15 10
a 15 16 10
a 16 15 10
a 16 25 2
a 25 16 2
a 16 17 7
a 17 16 7
a 17 26 9
a 26 17 9
a 17 18 10
a 18 17 10
a 18 27 6
a 27 18 6
a 19 28 2
a 28 19 2
a 19 20 1
a 20 19 1
a 20 29 7
a 29 20 7
a 20 21 6
a 21 20 6
a 21 30 3
a 30 21 3
a 21 22 2
a 22 21 2
a 22 31 4
a 31 22 4
a 22 23 9
a 23 22 9
a 23 32 6
a 32 23 6
a 23 24 3
a 24 23 3
a 24 33 3
a 33 24 3
a 24 25 1
a 25 24 1
a 25 34 1
a 34 25 1
a 25 26 8
a 26 25 8
a 26 35 5
a 35 26 5
a 26 27 8
a 27 26 8
a 27 36 5
a 36 27 5
a 28 37 7
a 37 28 7
a 28 29 1
a 29 28 1
a 29 38 3
a 38 29 3
a 29 30 6
a 30 29 6
a 30 39 6
a 39 30 6
a 30 31 3
a 31 30 3
a 31 40 1
a 40 31 1
a 31 32 9
a 32 31 9
a 32 41 7
a 41 32 7
a 32 33 9
a 33 32 9
a 33 42 5
a 42 33 5
a 33 34 7
a 34 33 7
a 34 43 4
a 43 34 4
a 34 35 4
a 35 34 4
a 35 44 10
a 44 35 10
a 35 36 4
a 36 35 4
a 36 45 2
a 45 36 2
a 37 46 10
a 46 37 10
a 37 38 7
a 38 37 7
a 38 47 5
a 47 38 5
a 38 39 4
a 39 38 4
a 39 48 5
a 48 39 5
a 39 40 3
a 40 39 3
a 40 49 5
a 49 40 5
a 40 41 8
a 41 40 8
a 41 50 4
a 50 41 4
a 41 42 10
a 42 41 10
a 42 51 6
a 51 42 6
a 42 43 2
a 43 42 2
a 43 52 1
a 52 43 1
a 43 44 6
a 44 43 6
a 44 53 9
a 53 44 9
a 44 45 10
a 45 44 10
a 45 54 10
a 54 45 10
a 46 55 3
a 55 46 3
a 46 47 7
a 47 46 7
a 47 56 1
a 56 47 1
a 47 48 9
a 48 47 9
a 48 57 10
a 57 48 10
a 48 49 10
a 49 48 10
a 49 58 8
a 58 49 8
a 49 50 4
a 50 49 4
a 50 59 5
a 59 50 5
a 50 51 10
a 51 50 10
a 51 60 7
a 60 51 7
a 51 52 3
a 52 51 3
a 52 61 5
a 61 52 5
a 52 53 2
a 53 52 2
a 53 62 7
a 62 53 7
a 53 54 7
a 54 53 7
a 54 63 8
a 63 54 8
a 55 64 7
a 64 55 7
a 55 56 10
a 56 55 10
a 56 65 5
a 65 56 5
a 56 57 9
a 57 56 9
a 57 66 1
a 66 57 1
a 57 58 2
a 58 57 2
a 58 67 3
a 67 58 3
a 58 59 9
a 59 58 9
a 59 68 2
a 68 59 2
a 59 60 1
a 60 59 1
a 60 69 8
a 69 60 8
a 60 61 3
a 61 60 3
a 61 70 9
a 70 61 9
a 61 62 1
a 62 61 1
a 62 71 1
a 71 62 1
a 62 63 7
a 63 62 7
a 63 72 10
a 72 63 10
a 64 73 10
a 73 64 10
a 64 65 5
a 65 64 5
a 65 74 5
a 74 65 5
a 65 66 4
a 66 65 4
a 66 75 6
a 75 66 6
a 66 67 1
a 67 66 1
a 67 76 1
a 76 67 1
a 67 68 3
a 68 67 3
a 68 77 7
a 77 68 7
a 68 69 10
a 69 68 10
a 69 78 10
a 78 69 10
a 69 70 8
a 70 69 8
a 70 79 4
a 79 70 4
a 70 71 9
a 71 70 9
a 71 80 2
a 80 71 2
a 71 72 4
a 72 71 4
a 72 81 9
a 81 72 9
a 73 74 9
a 74 73 9
a 74 75 7
a 75 74 7
a 75 76 4
a 76 75 4
a 76 77 4
a 77 76 4
a 77 78 6
a 78 77 6
a 78 79 8
a 79 78 8
a 79 80 2
a 80 79 2
a 80 81 4
a 81 80 4
